feasible solution found by trivial heuristic after 0.2 seconds, objective value -5.764386e+07
presolving:
(round 1, fast)       30905 del vars, 30905 del conss, 0 add conss, 0 chg bounds, 0 chg sides, 0 chg coeffs, 0 upgd conss, 0 impls, 41756 clqs
   (1.5s) running MILP presolver
   (2.4s) MILP presolver (3 rounds): 0 aggregations, 4181 fixings, 0 bound changes
(round 2, medium)     35086 del vars, 30905 del conss, 0 add conss, 0 chg bounds, 0 chg sides, 0 chg coeffs, 0 upgd conss, 0 impls, 41756 clqs
(round 3, fast)       35086 del vars, 35086 del conss, 0 add conss, 0 chg bounds, 0 chg sides, 0 chg coeffs, 0 upgd conss, 0 impls, 45261 clqs
(round 4, exhaustive) 35086 del vars, 35762 del conss, 0 add conss, 0 chg bounds, 0 chg sides, 0 chg coeffs, 0 upgd conss, 0 impls, 45261 clqs
(round 5, exhaustive) 35086 del vars, 35762 del conss, 0 add conss, 0 chg bounds, 0 chg sides, 0 chg coeffs, 45261 upgd conss, 0 impls, 45261 clqs
   (3.1s) probing: 51/117 (43.6%) - 0 fixings, 0 aggregations, 0 implications, 0 bound changes
   (3.1s) probing aborted: 50/50 successive totally useless probings
   (3.2s) symmetry computation started: requiring (bin +, int -, cont +), (fixed: bin -, int +, cont -)
   (3.2s) no symmetry present
presolving (6 rounds: 6 fast, 4 medium, 3 exhaustive):
 35086 deleted vars, 35762 deleted constraints, 0 added constraints, 0 tightened bounds, 0 added holes, 0 changed sides, 0 changed coefficients
 0 implications, 45261 cliques
presolved problem has 117 variables (117 bin, 0 int, 0 impl, 0 cont) and 45261 constraints
  45261 constraints of type <setppc>
Presolving Time: 3.09
transformed 1/1 original solutions to the transformed problem space

 time | node  | left  |LP iter|LP it/n|mem/heur|mdpt |vars |cons |rows |cuts |sepa|confs|strbr|  dualbound   | primalbound  |  gap   | compl. 
p 3.4s|     1 |     0 |     0 |     - |  clique|   0 | 117 |  45k|  45k|   0 |  0 |   0 |   0 |-5.738788e+07 |-5.762779e+07 |   0.42%| unknown
p 3.5s|     1 |     0 |     0 |     - |   locks|   0 | 117 |  45k|  45k|   0 |  0 |   0 |   0 |-5.738788e+07 |-5.762456e+07 |   0.41%| unknown
  5.4s|     1 |     0 |  1429 |     - |   329M |   0 | 117 |  45k|  45k|   0 |  0 |   0 |   0 |-5.761131e+07 |-5.762456e+07 |   0.02%| unknown
  5.8s|     1 |     0 |  1628 |     - |   335M |   0 | 117 |  45k|  45k|   1 |  1 |   0 |   0 |-5.761145e+07 |-5.762456e+07 |   0.02%| unknown
  6.1s|     1 |     0 |  1799 |     - |   341M |   0 | 117 |  45k|  45k|   2 |  2 |   0 |   0 |-5.761151e+07 |-5.762456e+07 |   0.02%| unknown
  6.4s|     1 |     0 |  1948 |     - |   347M |   0 | 117 |  45k|  45k|   3 |  3 |   0 |   0 |-5.761154e+07 |-5.762456e+07 |   0.02%| unknown
  6.7s|     1 |     0 |  2089 |     - |   352M |   0 | 117 |  45k|  45k|   4 |  4 |   0 |   0 |-5.761155e+07 |-5.762456e+07 |   0.02%| unknown
  6.9s|     1 |     0 |  2260 |     - |   358M |   0 | 117 |  45k|  45k|   5 |  5 |   0 |   0 |-5.761156e+07 |-5.762456e+07 |   0.02%| unknown
  7.2s|     1 |     0 |  2404 |     - |   365M |   0 | 117 |  45k|  45k|   6 |  6 |   0 |   0 |-5.761157e+07 |-5.762456e+07 |   0.02%| unknown
  7.5s|     1 |     0 |  2540 |     - |   369M |   0 | 117 |  45k|  45k|   7 |  7 |   0 |   0 |-5.761157e+07 |-5.762456e+07 |   0.02%| unknown
  7.7s|     1 |     0 |  2664 |     - |   375M |   0 | 117 |  45k|  45k|   8 |  8 |   0 |   0 |-5.761157e+07 |-5.762456e+07 |   0.02%| unknown
  8.1s|     1 |     0 |  2849 |     - |   380M |   0 | 117 |  45k|  45k|   9 |  9 |   0 |   0 |-5.761157e+07 |-5.762456e+07 |   0.02%| unknown
  8.4s|     1 |     0 |  3034 |     - |   387M |   0 | 117 |  45k|  45k|  10 | 10 |   0 |   0 |-5.761158e+07 |-5.762456e+07 |   0.02%| unknown
  8.6s|     1 |     0 |  3090 |     - |   392M |   0 | 117 |  45k|  45k|  11 | 11 |   0 |   0 |-5.761158e+07 |-5.762456e+07 |   0.02%| unknown
  8.8s|     1 |     0 |  3194 |     - |   397M |   0 | 117 |  45k|  45k|  12 | 12 |   0 |   0 |-5.761158e+07 |-5.762456e+07 |   0.02%| unknown
 time | node  | left  |LP iter|LP it/n|mem/heur|mdpt |vars |cons |rows |cuts |sepa|confs|strbr|  dualbound   | primalbound  |  gap   | compl. 
  8.9s|     1 |     0 |  3255 |     - |   401M |   0 | 117 |  45k|  45k|  13 | 13 |   0 |   0 |-5.761158e+07 |-5.762456e+07 |   0.02%| unknown
  9.0s|     1 |     0 |  3288 |     - |   406M |   0 | 117 |  45k|  45k|  14 | 14 |   0 |   0 |-5.761158e+07 |-5.762456e+07 |   0.02%| unknown
  9.2s|     1 |     0 |  3336 |     - |   411M |   0 | 117 |  45k|  45k|  15 | 15 |   0 |   0 |-5.761158e+07 |-5.762456e+07 |   0.02%| unknown
  9.3s|     1 |     0 |  3430 |     - |   416M |   0 | 117 |  45k|  45k|  16 | 16 |   0 |   0 |-5.761158e+07 |-5.762456e+07 |   0.02%| unknown
d10.4s|     1 |     0 |  4207 |     - |farkasdi|   0 | 117 |  45k|  45k|   0 | 16 |   0 |   0 |-5.761158e+07 |-5.762135e+07 |   0.02%| unknown
 10.5s|     1 |     0 |  4207 |     - |   416M |   0 | 117 |  45k|  45k|  16 | 16 |   0 |   0 |-5.761158e+07 |-5.762135e+07 |   0.02%| unknown
 10.7s|     1 |     0 |  4248 |     - |   420M |   0 | 117 |  45k|  45k|  17 | 17 |   0 |   0 |-5.761158e+07 |-5.762135e+07 |   0.02%| unknown
 10.7s|     1 |     0 |  4274 |     - |   421M |   0 | 117 |  45k|  45k|  18 | 18 |   0 |   0 |-5.761158e+07 |-5.762135e+07 |   0.02%| unknown
 34.4s|     1 |     2 |  4274 |     - |   421M |   0 | 117 |  45k|  45k|  18 | 18 |   0 |  22 |-5.761197e+07 |-5.762135e+07 |   0.02%| unknown
*35.5s|     2 |     1 |  4937 |1456.0 |strongbr|   1 | 117 |  45k|  45k|  18 |  1 |   0 |  23 |-5.761197e+07 |-5.761984e+07 |   0.01%| unknown
*43.5s|     3 |     0 |  5491 |1005.0 |strongbr|   1 | 117 |  45k|  45k|  18 |  1 |   1 |  34 |-5.761197e+07 |-5.761745e+07 |   0.01%|  81.66%

SCIP Status        : problem is solved [optimal solution found]
Solving Time (sec) : 50.96
Solving Nodes      : 3
Primal Bound       : -5.76174534644177e+07 (31 solutions)
Dual Bound         : -5.76174534644177e+07
Gap                : 0.00 %
Solve Status: optimal
Solve Time: 51.00 seconds
